15
1 0 63
3 1 24
3 2 58
4 0 67
4 1 70
4 2 76
4 3 2
5 1 10
5 3 55
5 4 36
6 0 36
6 1 64
6 2 80
6 4 60
7 1 19
7 3 4
7 5 19
8 1 54
8 2 25
8 5 61
8 6 29
8 7 25
9 0 36
9 2 65
9 3 15
9 4 49
9 6 40
10 1 20
10 3 60
10 4 82
10 5 95
10 6 55
10 9 5
11 0 27
11 1 17
11 2 54
11 4 30
11 5 41
11 8 43
11 9 73
11 10 76
12 7 87
12 8 85
12 9 83
13 5 59
13 6 61
13 7 56
13 9 49
13 10 57
13 12 65
14 7 34
14 8 91
14 10 96
14 11 6
14 12 15
14 13 40
